NAME : P-n101-k4
COMMENT : (Augerat et al, No of trucks: 4, Optimal value: 681)
TYPE : CVRP
DIMENSION : 101
EDGE_WEIGHT_TYPE : EUC_2D
CAPACITY : 400
NODE_COORD_SECTION
1 3 4
2 5 4
3 0 0
4 0 1
5 0 7
6 0 8
7 1 0
8 1 2
9 1 6
10 1 8
11 6 2
12 6 6
13 7 0
14 7 8
15 8 0
16 8 1
17 8 7
18 8 8
DEMAND_SECTION
1 1
2 10
3 7
4 13
5 19
6 26
7 3
8 5
9 9
10 16
11 16
12 12
13 19
14 23
15 20
16 8
17 10
18 12

DEPOT_SECTION
 1
 -1
EOF
